Version identifier: 12.10.0.0 | 2019-11-26 | 843d4de
CPXPARAM_WorkMem                                 28672
Tried aggregator 2 times.
MIP Presolve modified 18 coefficients.
Aggregator did 30 substitutions.
Reduced MIP has 103 rows, 120 columns, and 480 nonzeros.
Reduced MIP has 120 binaries, 0 generals, 0 SOSs, and 0 indicators.
Presolve time = 0,00 sec. (0,64 ticks)
Found incumbent of value 90,000000 after 0,00 sec. (0,95 ticks)
Probing time = 0,00 sec. (0,17 ticks)
Tried aggregator 1 time.
Detecting symmetries...
MIP Presolve eliminated 21 rows and 0 columns.
MIP Presolve added 42 rows and 0 columns.
Reduced MIP has 124 rows, 120 columns, and 501 nonzeros.
Reduced MIP has 120 binaries, 0 generals, 0 SOSs, and 0 indicators.
Presolve time = 0,00 sec. (0,58 ticks)
Probing time = 0,00 sec. (0,17 ticks)
Clique table members: 340.
MIP emphasis: balance optimality and feasibility.
MIP search method: dynamic search.
Parallel mode: deterministic, using up to 16 threads.
Root relaxation solution time = 0,00 sec. (0,50 ticks)

        Nodes                                         Cuts/
   Node  Left     Objective  IInf  Best Integer    Best Bound    ItCnt     Gap

*     0+    0                           90,0000        0,0000           100,00%
*     0+    0                           64,0000        0,0000           100,00%
*     0+    0                           62,0000        0,0000           100,00%
*     0+    0                           61,0000        0,0000           100,00%
*     0+    0                           59,0000        0,0000           100,00%
      0     0       31,0938   114       59,0000       31,0938       68   47,30%
      0     0       31,9604   114       59,0000      Cuts: 94      100   45,83%
      0     0       33,2964   114       59,0000     Cuts: 119      135   43,57%
      0     0       33,8400   114       59,0000      Cuts: 63      173   42,64%
      0     0       34,0201   114       59,0000      Cuts: 82      222   42,34%
      0     0       34,3226   114       59,0000      Cuts: 79      264   41,83%
      0     0       34,4960   114       59,0000      Cuts: 19      307   41,53%
      0     0       34,6781   114       59,0000      Cuts: 26      346   41,22%
      0     0       34,7923   114       59,0000      Cuts: 53      392   41,03%
      0     0       35,0389   114       59,0000      Cuts: 66      444   40,61%
      0     0       35,1222   114       59,0000      Cuts: 71      479   40,47%
      0     0       35,1583   114       59,0000      Cuts: 52      512   40,41%
      0     0       35,2032   114       59,0000      Cuts: 14      550   40,33%
      0     0       35,2700   114       59,0000      Cuts: 45      592   40,22%
      0     0       35,3717   114       59,0000      Cuts: 33      651   40,05%
      0     0       35,4564   114       59,0000      Cuts: 27      677   39,90%
      0     0       35,5103   114       59,0000      Cuts: 23      712   39,81%
      0     0       35,5282   114       59,0000      Cuts: 22      737   39,78%
      0     0       35,6810   114       59,0000      Cuts: 36      791   39,52%
*     0+    0                           57,0000       35,6810            37,40%
      0     0       35,7155   114       57,0000      Cuts: 20      830   37,34%
      0     0       35,8468   114       57,0000      Cuts: 41      895   37,11%
      0     0       35,9153   114       57,0000      Cuts: 57      936   36,99%
      0     0       35,9744   114       57,0000      Cuts: 41      976   36,89%
      0     0       36,0115   114       57,0000      Cuts: 34     1006   36,82%
      0     0       36,0818   114       57,0000      Cuts: 43     1054   36,70%
      0     0       36,1150   114       57,0000      Cuts: 18     1087   36,64%
      0     0       36,1469   114       57,0000      Cuts: 57     1135   36,58%
      0     0       36,1797   114       57,0000      Cuts: 29     1165   36,53%
      0     0       36,2104   114       57,0000      Cuts: 27     1200   12,08%
      0     0       36,2722   114       57,0000      Cuts: 37     1240   12,08%
      0     0        cutoff             57,0000       57,0000     1240    0,00%
Elapsed time = 0,41 sec. (131,56 ticks, tree = 0,01 MB, solutions = 6)

Clique cuts applied:  6
Cover cuts applied:  9
Flow cuts applied:  1
Mixed integer rounding cuts applied:  10
Zero-half cuts applied:  47
Gomory fractional cuts applied:  11

Root node processing (before b&c):
  Real time             =    0,41 sec. (131,58 ticks)
Parallel b&c, 16 threads:
  Real time             =    0,00 sec. (0,00 ticks)
  Sync time (average)   =    0,00 sec.
  Wait time (average)   =    0,00 sec.
                          ------------
Total (root+branch&cut) =    0,41 sec. (131,58 ticks)
